c Created with the Wolfram Language : www.wolfram.com
c 
p edge 70 501
e 1 2
e 1 4
e 2 5
e 3 6
e 4 6
e 2 8
e 5 10
e 7 10
e 9 10
e 1 11
e 2 11
e 5 11
e 6 11
e 7 11
e 8 11
e 9 11
e 2 12
e 11 12
e 1 13
e 10 13
e 2 14
e 7 14
e 8 14
e 11 14
e 1 15
e 3 15
e 6 15
e 9 15
e 1 16
e 3 16
e 5 16
e 9 16
e 13 16
e 3 17
e 7 17
e 14 17
e 2 18
e 6 18
e 15 18
e 11 19
e 13 19
e 1 20
e 6 20
e 8 20
e 14 20
e 2 21
e 13 21
e 14 21
e 16 21
e 17 21
e 18 22
e 21 22
e 3 23
e 6 23
e 8 23
e 9 23
e 14 23
e 18 23
e 20 23
e 2 24
e 6 24
e 13 24
e 18 24
e 19 24
e 4 25
e 10 25
e 13 25
e 15 25
e 2 26
e 3 26
e 7 26
e 8 26
e 9 26
e 16 26
e 12 27
e 14 27
e 22 27
e 23 27
e 25 27
e 2 28
e 3 28
e 12 28
e 14 28
e 18 28
e 21 28
e 22 28
e 23 28
e 25 28
e 26 28
e 4 29
e 5 29
e 16 29
e 22 29
e 23 29
e 24 29
e 25 29
e 26 29
e 3 30
e 7 30
e 9 30
e 14 30
e 21 30
e 22 30
e 26 30
e 27 30
e 29 30
e 5 31
e 6 31
e 11 31
e 13 31
e 15 31
e 23 31
e 30 31
e 1 32
e 6 32
e 9 32
e 10 32
e 12 32
e 16 32
e 8 33
e 15 33
e 19 33
e 21 33
e 24 33
e 31 33
e 32 33
e 2 34
e 17 34
e 19 34
e 21 34
e 22 34
e 23 34
e 32 34
e 1 35
e 11 35
e 13 35
e 19 35
e 20 35
e 22 35
e 23 35
e 24 35
e 31 35
e 34 35
e 10 36
e 11 36
e 15 36
e 18 36
e 21 36
e 34 36
e 35 36
e 1 37
e 6 37
e 11 37
e 18 37
e 20 37
e 22 37
e 24 37
e 34 37
e 1 38
e 7 38
e 9 38
e 24 38
e 28 38
e 31 38
e 32 38
e 34 38
e 35 38
e 4 39
e 5 39
e 8 39
e 9 39
e 24 39
e 32 39
e 33 39
e 37 39
e 7 40
e 8 40
e 14 40
e 20 40
e 28 40
e 29 40
e 30 40
e 32 40
e 33 40
e 38 40
e 39 40
e 12 41
e 23 41
e 27 41
e 33 41
e 36 41
e 2 42
e 9 42
e 23 42
e 24 42
e 32 42
e 5 43
e 7 43
e 14 43
e 15 43
e 33 43
e 34 43
e 8 44
e 11 44
e 19 44
e 20 44
e 21 44
e 27 44
e 35 44
e 36 44
e 37 44
e 42 44
e 2 45
e 4 45
e 9 45
e 12 45
e 14 45
e 19 45
e 22 45
e 24 45
e 26 45
e 28 45
e 36 45
e 41 45
e 43 45
e 4 46
e 7 46
e 10 46
e 11 46
e 21 46
e 32 46
e 42 46
e 6 47
e 9 47
e 14 47
e 17 47
e 20 47
e 32 47
e 33 47
e 1 48
e 9 48
e 12 48
e 17 48
e 4 49
e 5 49
e 15 49
e 16 49
e 17 49
e 31 49
e 33 49
e 40 49
e 42 49
e 48 49
e 2 50
e 11 50
e 14 50
e 21 50
e 23 50
e 35 50
e 37 50
e 42 50
e 43 50
e 47 50
e 10 51
e 30 51
e 31 51
e 33 51
e 37 51
e 40 51
e 41 51
e 3 52
e 7 52
e 8 52
e 9 52
e 15 52
e 24 52
e 26 52
e 31 52
e 33 52
e 42 52
e 2 53
e 3 53
e 9 53
e 15 53
e 18 53
e 20 53
e 21 53
e 23 53
e 26 53
e 31 53
e 35 53
e 42 53
e 46 53
e 50 53
e 6 54
e 7 54
e 11 54
e 41 54
e 45 54
e 52 54
e 3 55
e 5 55
e 6 55
e 21 55
e 22 55
e 30 55
e 37 55
e 38 55
e 41 55
e 45 55
e 46 55
e 5 56
e 7 56
e 12 56
e 13 56
e 18 56
e 21 56
e 24 56
e 30 56
e 33 56
e 40 56
e 47 56
e 54 56
e 5 57
e 11 57
e 18 57
e 19 57
e 20 57
e 23 57
e 33 57
e 43 57
e 46 57
e 47 57
e 48 57
e 55 57
e 18 58
e 27 58
e 30 58
e 45 58
e 55 58
e 57 58
e 5 59
e 12 59
e 13 59
e 20 59
e 23 59
e 31 59
e 34 59
e 41 59
e 48 59
e 12 60
e 13 60
e 23 60
e 24 60
e 25 60
e 27 60
e 37 60
e 41 60
e 44 60
e 52 60
e 53 60
e 59 60
e 6 61
e 7 61
e 20 61
e 24 61
e 34 61
e 36 61
e 39 61
e 42 61
e 43 61
e 45 61
e 48 61
e 52 61
e 56 61
e 59 61
e 60 61
e 1 62
e 7 62
e 12 62
e 15 62
e 18 62
e 23 62
e 24 62
e 30 62
e 37 62
e 42 62
e 47 62
e 50 62
e 52 62
e 56 62
e 2 63
e 4 63
e 11 63
e 13 63
e 28 63
e 31 63
e 34 63
e 46 63
e 47 63
e 49 63
e 53 63
e 57 63
e 58 63
e 60 63
e 2 64
e 3 64
e 6 64
e 10 64
e 12 64
e 22 64
e 23 64
e 26 64
e 38 64
e 39 64
e 42 64
e 49 64
e 52 64
e 58 64
e 61 64
e 1 65
e 3 65
e 11 65
e 12 65
e 24 65
e 35 65
e 39 65
e 40 65
e 43 65
e 47 65
e 50 65
e 52 65
e 57 65
e 1 66
e 4 66
e 7 66
e 10 66
e 29 66
e 35 66
e 43 66
e 50 66
e 54 66
e 64 66
e 1 67
e 3 67
e 8 67
e 11 67
e 13 67
e 18 67
e 33 67
e 34 67
e 43 67
e 47 67
e 49 67
e 50 67
e 51 67
e 52 67
e 55 67
e 56 67
e 59 67
e 63 67
e 2 68
e 5 68
e 16 68
e 18 68
e 19 68
e 21 68
e 25 68
e 32 68
e 38 68
e 52 68
e 55 68
e 65 68
e 1 69
e 3 69
e 12 69
e 13 69
e 19 69
e 25 69
e 29 69
e 31 69
e 43 69
e 45 69
e 47 69
e 50 69
e 57 69
e 63 69
e 66 69
e 67 69
e 68 69
e 5 70
e 6 70
e 13 70
e 26 70
e 34 70
e 37 70
e 49 70
e 50 70
e 62 70
e 63 70
e 69 70
